NAME : Christ100-10-f.63145.tour
COMMENT : Length = 63145
COMMENT : Found by LKH-3 [Keld Helsgaun] Fri Jun  6 11:31:04 2025
TYPE : TOUR
DIMENSION : 120
TOUR_SECTION
68
50
31
83
82
84
32
51
85
66
33
77
49
35
65
14
64
34
39
78
90
22
36
63
38
37
79
11
60
86
87
13
89
43
91
88
44
45
75
81
19
61
30
40
80
41
98
72
20
42
100
73
74
21
29
57
46
56
18
55
27
94
15
70
93
28
112
3
113
4
114
5
115
6
59
116
7
76
117
8
118
9
119
10
120
1
92
17
58
111
2
62
99
16
106
109
103
69
102
47
108
110
101
95
71
26
96
48
54
24
52
53
25
67
12
97
107
105
104
23
-1
EOF
